; benchmark generated from python API
(set-info :status unknown)
(declare-datatypes ((RealState 0)) (((RMk1 (rval1 Real)) (RMk2 (rval2 Real)))))
 (declare-fun x1 () Real)
(assert
 (let (($x4520 (forall ((?y1 Real) )(exists ((?y3_st RealState) (val!106 Real) )(let (($x4414 (and (> (+ (* 67.0 (rval2 ?y3_st)) (* 80.0 x1)) 0.0) (<= (+ (* (- 18.0) (rval2 ?y3_st)) (* 1.0 x1)) 32.0))))
 (let (($x3508 (and (= (+ (* (- 28.0) (rval2 ?y3_st)) (* (- 39.0) x1)) (- 60.0)) (>= (+ (* (- 44.0) ?y1) (* 90.0 x1)) 0.0))))
 (let ((?x348 (- 74.0)))
 (let ((?x85 (* 53.0 x1)))
 (let (($x1430 (>= (+ (+ (* (- 39.0) (rval2 ?y3_st)) (* (- 73.0) ?y1)) ?x85) ?x348)))
 (let (($x4662 (or (or (< (+ (* (- 50.0) ?y1) (* 96.0 x1)) 67.0) $x1430) $x3508)))
 (let ((?x7837 (- 27.0)))
 (let ((?x7385 (* 60.0 x1)))
 (let (($x767 (= (+ (+ (* (- 60.0) (rval2 ?y3_st)) (* (- 47.0) ?y1)) ?x7385) ?x7837)))
 (let (($x4648 (and $x767 (< (+ (* (- 68.0) (rval2 ?y3_st)) (* (- 1.0) ?y1)) (- 86.0)))))
 (let (($x766 (<= (+ (+ (* (- 70.0) (rval2 ?y3_st)) (* 57.0 ?y1)) (* 58.0 x1)) 0.0)))
 (let (($x6659 (>= (+ (* 22.0 ?y1) (* 35.0 x1)) 0.0)))
 (let (($x6567 (and (> (+ (* (- 3.0) ?y1) (* (- 55.0) x1)) (- 31.0)) $x6659)))
 (let (($x4513 (and $x6567 (or $x766 (< (+ (* 68.0 (rval2 ?y3_st)) (* 43.0 ?y1)) 61.0)))))
 (let (($x4516 (and (or $x4513 (and (>= (* 55.0 ?y1) 0.0) $x4648)) (and $x4662 $x4414))))
 (let (($x427 (not (= ?y3_st (RMk1 val!106)))))
 (and $x427 $x4516))))))))))))))))))
 )
 ))
 (let (($x4580 (forall ((?y2 Real) )(exists ((?y3_st RealState) (val!105 Real) )(let ((?x6990 (* 10.0 x1)))
 (let (($x6825 (> (+ (+ (* (- 76.0) (rval2 ?y3_st)) (* (- 1.0) ?y2)) ?x6990) 59.0)))
 (let (($x6810 (and $x6825 (>= (+ (* (- 1.0) (rval2 ?y3_st)) (* 59.0 x1)) 0.0))))
 (let ((?x180 (- 86.0)))
 (let ((?x8042 (* (- 41.0) x1)))
 (let (($x6835 (or (< (+ (+ (* 40.0 (rval2 ?y3_st)) (* (- 17.0) ?y2)) ?x8042) ?x180) (<= (+ (* 88.0 ?y2) (* (- 91.0) x1)) (- 45.0)))))
 (let ((?x92 (- 43.0)))
 (let ((?x7198 (* 92.0 x1)))
 (let (($x7071 (<= (+ (+ (* (- 74.0) (rval2 ?y3_st)) (* (- 44.0) ?y2)) ?x7198) ?x92)))
 (let (($x7150 (and (and $x7071 (< (+ (* (- 44.0) (rval2 ?y3_st)) (* 85.0 ?y2)) ?x180)) (and $x6835 $x6810))))
 (let (($x9394 (and (not (= (+ (* (- 88.0) ?y2) (* 77.0 x1)) (- 85.0))) (not (= (+ (* 65.0 ?y2) (* (- 20.0) x1)) 5.0)))))
 (let ((?x3428 (* (- 93.0) x1)))
 (let (($x4395 (= (+ (+ (* (- 70.0) (rval2 ?y3_st)) (* (- 94.0) ?y2)) ?x3428) 0.0)))
 (let (($x6612 (and (< (+ (* (- 51.0) (rval2 ?y3_st)) (* (- 97.0) ?y2)) (- 44.0)) (not $x4395))))
 (let (($x4570 (= (+ (+ (* 22.0 (rval2 ?y3_st)) (* 75.0 ?y2)) (* 63.0 x1)) 0.0)))
 (let ((?x2479 (- 47.0)))
 (let (($x4574 (< (+ (+ (* 18.0 (rval2 ?y3_st)) (* 83.0 ?y2)) (* 95.0 x1)) ?x2479)))
 (let (($x4563 (or (or (or $x4574 (not $x4570)) $x6612) (or $x9394 (not (= (* (- 56.0) (rval2 ?y3_st)) (- 42.0)))))))
 (let (($x427 (not (= ?y3_st (RMk1 val!105)))))
 (and $x427 (or $x4563 $x7150))))))))))))))))))))))
 )
 ))
 (or $x4580 $x4520))))
(check-sat)
